tutorial3/__tmp.lp
Minimize
 obj: X0
Subject To
 -X0 >= -1800
 X0 >= 0
 -X1 >= -10
 X1 >= 0
 -2 X1 - 2 X2 - 4 X3 - 4 X4 + X6 = 0
 -X2 >= -10
 X2 >= 0
 -2 X2 - 3 X1 + X7 = 0
 -20 X2 - 30 X3 - 50 X1 - 80 X4 + X0 = 0
 -X3 >= -10
 X3 >= 0
 -150 X3 - 200 X2 - 400 X1 - 500 X4 + X8 = 0
 -X3 - 2 X1 - 4 X2 - 5 X4 + X5 = 0
 -X4 >= -10
 X4 >= 0
 -X5 >= -120
 X5 >= 8
 -X6 >= -120
 X6 >= 10
 -X7 >= -50
 X7 >= 6
 -X8 >= -12500
 X8 >= 500
Bounds
 0 <= X0 <= 1800
 0 <= X1 <= 10
 0 <= X2 <= 10
 0 <= X3 <= 10
 0 <= X4 <= 10
 8 <= X5 <= 120
 10 <= X6 <= 120
 6 <= X7 <= 50
 500 <= X8 <= 12500
Integers
 X0
 X1
 X2
 X3
 X4
 X5
 X6
 X7
 X8
End
